!! filename=crystal
!
!   GAMESS Calculation input file
!   
!
 $CONTRL SCFTYP=UHF MAXIT=200 RUNTYP=HESSIAN
         COORD=UNIQUE MULT=1 
         ICHARG=0  
         DFTTYP=B3LYP
         MOLPLT=.FALSE. PLTORB=.FALSE.  $END
 $SYSTEM TIMLIM=2879 MWORDS=250  $END

 $FORCE METHOD=SEMINUM NVIB=2 $END 
 $STATPT OPTTOL=0.0005 NSTEP=999 $END
 $STATPT IHREP=20 HSSEND=.TRUE.  $END

 $DFT    METHOD=GRID  NLEB=590  $END

 $BASIS  GBASIS=N31 NGAUSS=6
         NDFUNC=1   NPFUNC=0  $END

 $BASIS  DIFFSP=.T. $END

 $PCM  SOLVNT=H2O  $END

 $SCF    DIRSCF=.T. $END
 $GUESS  GUESS=HUCKEL  $END

 $DATA
   
  C1
N     7.0    -0.91319    -0.64273     0.00110
C     6.0    -0.26143     0.74370    -0.01122
C     6.0    -0.76266     1.56010    -1.25908
C     6.0    -0.75463     1.59656     1.21585
C     6.0    -2.26997     1.82300    -1.27528
C     6.0    -2.26113     1.86302     1.23537
C     6.0    -0.60471    -1.47920    -1.19672
C     6.0    -0.68422    -1.42579     1.25065
C     6.0    -2.72375     2.56742    -0.02976
C     6.0     1.30114     0.64352    -0.00997
C     6.0    -1.37941    -2.79307    -1.21250
C     6.0    -1.45961    -2.73991     1.26973
C     6.0    -1.13713    -3.59317     0.05540
C     6.0     2.04958     0.55720    -1.20846
C     6.0     2.04791     0.56645     1.18945
C     6.0     3.43274     0.39592    -1.20645
C     6.0     3.43120     0.40736     1.19106
C     6.0     4.12534     0.31798    -0.00709
H     1.0    -0.50549     1.08688    -2.20915
H     1.0    -0.24923     2.52932    -1.28991
H     1.0    -0.23978     2.56552     1.21481
H     1.0    -0.49034     1.15121     2.17745
H     1.0    -2.81797     0.87896    -1.36186
H     1.0    -2.52959     2.41186    -2.16088
H     1.0    -2.51216     2.48076     2.10367
H     1.0    -2.81045     0.92372     1.35689
H     1.0     0.46363    -1.71257    -1.24676
H     1.0    -0.86213    -0.95807    -2.12074
H     1.0    -1.00654    -0.86754     2.13164
H     1.0     0.37891    -1.65003     1.38335
H     1.0    -2.31958     3.58573    -0.04729
H     1.0    -3.81414     2.66345    -0.02713
H     1.0    -1.08041    -3.38673    -2.08252
H     1.0    -2.45081    -2.59064    -1.32186
H     1.0    -2.53569    -2.53448     1.29915
H     1.0    -1.22035    -3.29607     2.18187
H     1.0    -1.75048    -4.49943     0.05475
H     1.0    -0.09027    -3.91543     0.09629
H     1.0     1.55874     0.58484    -2.17388
H     1.0     1.55591     0.60231     2.15432
H     1.0     3.97006     0.31771    -2.14681
H     1.0     3.96750     0.33970     2.13248
H     1.0     5.20222     0.18026    -0.00553
 $END
