!   File created by the GAMESS Input Deck Generator Plugin for Avogadro
 $BASIS GBASIS=N31 NGAUSS=6 NDFUNC=1 NPFUNC=1 DIFFSP=.TRUE. $END
 $CONTRL SCFTYP=RHF RUNTYP=ENERGY DFTTYP=B3LYP $END
 $SYSTEM TIMLIM=60 MWORDS=200 $END
 $GUESS PRTMO=.TRUE. $END

 $DATA 
nanotubo
C1
C     6,0     3,98639     3,26774     0,00000
C     6,0     3,52316     4,58331     0,27187
C     6,0     3,77235     4,19134     2,69338
C     6,0     3,19280     4,91178     1,61434
C     6,0     1,87459     5,36746     1,88621
C     6,0     0,97385     5,15872     0,80717
C     6,0    -0,00956     4,16966     1,07904
C     6,0    -0,21313     3,26774     0,00000
C     6,0     0,25010     1,95216     0,27187
C     6,0     3,92926     3,75418     5,11489
C     6,0     3,52228     4,58440     4,03585
C     6,0     2,33650     5,31873     4,30772
C     6,0     1,41191     5,31313     3,22868
C     6,0     0,23512     4,56446     3,50055
C     6,0    -0,16176     3,72936     2,42151
C     6,0     0,00091     2,34413     2,69338
C     6,0     0,58045     1,62369     1,61434
C     6,0     1,89867     1,16801     1,88621
C     6,0     2,79941     1,37675     0,80717
C     6,0     3,78281     2,36581     1,07904
C     6,0     3,98623     3,29321     7,53640
C     6,0     3,77173     4,19260     6,45736
C     6,0     2,77640     5,16965     6,72923
C     6,0     1,87319     5,36745     5,65019
C     6,0     0,56061     4,89582     5,92206
C     6,0    -0,01015     4,16840     4,84302
C     6,0    -0,15601     2,78130     5,11489
C     6,0     0,25097     1,95107     4,03585
C     6,0     1,43676     1,21674     4,30772
C     6,0     2,36135     1,22235     3,22868
C     6,0     3,53814     1,97101     3,50055
C     6,0     3,93501     2,80611     2,42151
C     6,0     3,92894     3,75553     8,87887
C     6,0     3,17276     4,92751     9,15074
C     6,0     2,33514     5,31903     8,07170
C     6,0     0,95098     5,14751     8,34357
C     6,0     0,23426     4,56337     7,26453
C     6,0    -0,21297     3,24226     7,53640
C     6,0     0,00152     2,34288     6,45736
C     6,0     0,99686     1,36582     6,72923
C     6,0     1,90006     1,16802     5,65019
C     6,0     3,21265     1,63966     5,92206
C     6,0     3,78341     2,36707     4,84302
C     6,0     2,77514     5,17024    10,49321
C     6,0     1,38713     5,30722    10,76508
C     6,0     0,55953     4,89494     9,68604
C     6,0    -0,16721     3,70448     9,95791
C     6,0    -0,15568     2,77994     8,87887
C     6,0     0,60049     1,60797     9,15074
C     6,0     1,43812     1,21644     8,07170
C     6,0     2,82228     1,38797     8,34357
C     6,0     3,53900     1,97211     7,26453
C     6,0     0,99812     1,36523    10,49321
C     6,0     2,38613     1,22826    10,76508
C     6,0     3,21373     1,64054     9,68604
C     6,0     3,94046     2,83099     9,95791
H     1,0     4,42686     2,99449    -0,89238
H     1,0     3,42939     5,27997    -0,48370
H     1,0     1,02846     5,67418    -0,08521
H     1,0    -0,65360     3,54099    -0,89238
H     1,0     0,34387     1,25550    -0,48370
H     1,0     2,74480     0,86130    -0,08521
H     1,0     3,47411     5,24489    11,24878
H     1,0     1,01694     5,67004    11,65746
H     1,0    -0,65488     3,52882    10,85029
H     1,0     0,29915     1,29059    11,24878
H     1,0     2,75631     0,86543    11,65746
H     1,0     4,42813     3,00665    10,85029
 $END
