!! filename=H2
!
!   GAMESS Calculation input file
!   Hartree-Fock Restrito
!
 $CONTRL SCFTYP=RHF MAXIT=200 RUNTYP=ENERGY
         COORD=UNIQUE MULT=1 
         ICHARG=0  
         MOLPLT=.FALSE. PLTORB=.FALSE.  $END
 $SYSTEM TIMLIM=2879 MWORDS=250  $END

 $STATPT OPTTOL=0.0005 NSTEP=999 $END
 $STATPT IHREP=20  $END

 $BASIS  GBASIS=N21 NGAUSS=3 $END

 $SCF    DIRSCF=.F. $END
 $GUESS  GUESS=HUCKEL  $END

 $DATA
   
  Dnh 4

H     1.0     0.00     0.00    -0.35
 $END
